cra-25/bc/bc.smt2
(declare-const Bracket_1 Real)
(declare-const Bracket_2 Real)
(declare-const Bracket_3 Real)
(declare-const Bracket_4 Real)
(declare-const Bracket_5 Real)
(declare-const Bracket_6 Real)
(declare-const Bracket_7 Real)
(declare-const FinalTaxes Real)
(declare-const Income Real)

(assert (=> (<= Income 49279.0) (and (= Bracket_1 (* 0.0506 Income)) (= Bracket_2 0.0) (= Bracket_3 0.0) (= Bracket_4 0.0) (= Bracket_5 0.0) (= Bracket_6 0.0) (= Bracket_7 0.0) (= FinalTaxes (+ Bracket_1 Bracket_2 Bracket_3 Bracket_4 Bracket_5 Bracket_6 Bracket_7)))))
(assert (=> (and (> Income 49279.0) (<= Income 98560.0)) (and (= Bracket_1 (* 0.0506 49279.0)) (= Bracket_2 (* 0.077 (- Income 49279.0))) (= Bracket_3 0.0) (= Bracket_4 0.0) (= Bracket_5 0.0) (= Bracket_6 0.0) (= Bracket_7 0.0) (= FinalTaxes (+ Bracket_1 Bracket_2 Bracket_3 Bracket_4 Bracket_5 Bracket_6 Bracket_7)))))
(assert (=> (and (> Income 98560.0) (<= Income 113158.0)) (and (= Bracket_1 (* 0.0506 49279.0)) (= Bracket_2 (* 0.077 (- 98560.0 49279.0))) (= Bracket_3 (* 0.105 (- Income 98560.0))) (= Bracket_4 0.0) (= Bracket_5 0.0) (= Bracket_6 0.0) (= Bracket_7 0.0) (= FinalTaxes (+ Bracket_1 Bracket_2 Bracket_3 Bracket_4 Bracket_5 Bracket_6 Bracket_7)))))
(assert (=> (and (> Income 113158.0) (<= Income 137407.0)) (and (= Bracket_1 (* 0.0506 49279.0)) (= Bracket_2 (* 0.077 (- 98560.0 49279.0))) (= Bracket_3 (* 0.105 (- 113158.0 98560.0))) (= Bracket_4 (* 0.1229 (- Income 113158.0))) (= Bracket_5 0.0) (= Bracket_6 0.0) (= Bracket_7 0.0) (= FinalTaxes (+ Bracket_1 Bracket_2 Bracket_3 Bracket_4 Bracket_5 Bracket_6 Bracket_7)))))
(assert (=> (and (> Income 137407.0) (<= Income 186306.0)) (and (= Bracket_1 (* 0.0506 49279.0)) (= Bracket_2 (* 0.077 (- 98560.0 49279.0))) (= Bracket_3 (* 0.105 (- 113158.0 98560.0))) (= Bracket_4 (* 0.1229 (- 137407.0 113158.0))) (= Bracket_5 (* 0.147 (- Income 137407.0))) (= Bracket_6 0.0) (= Bracket_7 0.0) (= FinalTaxes (+ Bracket_1 Bracket_2 Bracket_3 Bracket_4 Bracket_5 Bracket_6 Bracket_7)))))
(assert (=> (and (> Income 186306.0) (<= Income 259829.0)) (and (= Bracket_1 (* 0.0506 49279.0)) (= Bracket_2 (* 0.077 (- 98560.0 49279.0))) (= Bracket_3 (* 0.105 (- 113158.0 98560.0))) (= Bracket_4 (* 0.1229 (- 137407.0 113158.0))) (= Bracket_5 (* 0.147 (- 186306.0 137407.0))) (= Bracket_6 (* 0.168 (- Income 186306.0))) (= Bracket_7 0.0) (= FinalTaxes (+ Bracket_1 Bracket_2 Bracket_3 Bracket_4 Bracket_5 Bracket_6 Bracket_7)))))
(assert (=> (> Income 259829.0) (and (= Bracket_1 (* 0.0506 49279.0)) (= Bracket_2 (* 0.077 (- 98560.0 49279.0))) (= Bracket_3 (* 0.105 (- 113158.0 98560.0))) (= Bracket_4 (* 0.1229 (- 137407.0 113158.0))) (= Bracket_5 (* 0.147 (- 186306.0 137407.0))) (= Bracket_6 (* 0.168 (- 259829.0 186306.0))) (= Bracket_7 (* 0.205 (- Income 259829.0))) (= FinalTaxes (+ Bracket_1 Bracket_2 Bracket_3 Bracket_4 Bracket_5 Bracket_6 Bracket_7)))))
